Version identifier: 22.1.0.0 | 2022-03-09 | 1a383f8ce
CPXPARAM_Read_DataCheck                          1
Tried aggregator 3 times.
MIP Presolve eliminated 20516 rows and 2796 columns.
MIP Presolve modified 375 coefficients.
Aggregator did 18111 substitutions.
Reduced MIP has 3206 rows, 18979 columns, and 41160 nonzeros.
Reduced MIP has 18957 binaries, 22 generals, 0 SOSs, and 0 indicators.
Presolve time = 0.16 sec. (167.28 ticks)
Tried aggregator 1 time.
Detecting symmetries...
Reduced MIP has 3206 rows, 18979 columns, and 41160 nonzeros.
Reduced MIP has 18957 binaries, 22 generals, 0 SOSs, and 0 indicators.
Presolve time = 0.03 sec. (28.55 ticks)
Probing fixed 33 vars, tightened 0 bounds.
Probing changed sense of 8 constraints.
Probing time = 0.05 sec. (6.46 ticks)
Clique table members: 38761.
MIP emphasis: balance optimality and feasibility.
MIP search method: dynamic search.
Parallel mode: deterministic, using up to 8 threads.
Root relaxation solution time = 0.31 sec. (136.24 ticks)

        Nodes                                         Cuts/
   Node  Left     Objective  IInf  Best Integer    Best Bound    ItCnt     Gap

      0     0       22.4067  2314                     22.4067     2840         
      0     0       36.0000   636                    Cuts: 45     6380         
      0     0       36.0000   519                    Cuts: 45     9063         
      0     0       36.0000   538                ZeroHalf: 49    12000         
*     0+    0                           41.0000       36.0000            12.20%
      0     0       36.0000   546       41.0000   ZeroHalf: 1    12638   12.20%
*     0+    0                           40.0000       36.0000            10.00%
*     0+    0                           39.0000       36.0000             7.69%
      0     0  -1.00000e+75     0       39.0000       36.0000    12638    7.69%
      0     2       36.0000   546       39.0000       36.0000    12638    7.69%
Elapsed time = 34.30 sec. (21925.20 ticks, tree = 0.02 MB, solutions = 3)
      1     3       36.0000   464       39.0000       36.0000    15877    7.69%
      2     4       36.0000   331       39.0000       36.0000    17946    7.69%
      4     5       36.1000   384       39.0000       36.0000    20509    7.69%
      7     9       36.1000   386       39.0000       36.0000    28752    7.69%
     10    12       36.1000   477       39.0000       36.0000    33112    7.69%
     17    13       36.0000   362       39.0000       36.0000    37410    7.69%
     21     5       36.0000   343       39.0000       36.0000    19998    7.69%
     32     7       36.1000   306       39.0000       36.0000    26632    7.69%
     43    29       36.0000   524       39.0000       36.0000    59020    7.69%
    104    75       36.3750   210       39.0000       36.0000   122399    7.69%
Elapsed time = 46.07 sec. (27551.53 ticks, tree = 0.85 MB, solutions = 3)
    226   180       36.0000   302       39.0000       36.0000   273724    7.69%
    332   292       37.5095   203       39.0000       36.0000   380703    7.69%
*   402+  344                           38.0000       36.0000             5.26%
*   434   304      integral     0       37.0000       36.0000   414463    2.70%
    436   145    infeasible             37.0000       36.0000   472276    2.70%
    531    92    infeasible             37.0000       36.0000   517157    2.70%
    583    15        cutoff             37.0000       36.0000   608437    2.70%

Cover cuts applied:  1
Zero-half cuts applied:  80
Lift and project cuts applied:  4
Gomory fractional cuts applied:  17

Root node processing (before b&c):
  Real time             =   34.24 sec. (21906.59 ticks)
Parallel b&c, 8 threads:
  Real time             =   28.87 sec. (10845.10 ticks)
  Sync time (average)   =    7.12 sec.
  Wait time (average)   =    0.00 sec.
                          ------------
Total (root+branch&cut) =   63.11 sec. (32751.69 ticks)
